Assets/LKHProbs~/skull.49.tsp
NAME : GeneratedProblem
COMMENT : SVGCrosshatch
TYPE : TSP
DIMENSION : 28
EDGE_WEIGHT_TYPE : EUC_2D
NODE_COORD_SECTION
1 7200 9000
2 7300 8800
3 7300 8900
4 7300 9000
5 7400 8600
6 7400 8700
7 7400 8800
8 7400 8900
9 7400 9000
10 7500 8400
11 7500 8500
12 7500 8600
13 7500 8700
14 7500 8800
15 7500 8900
16 7500 9000
17 7600 8500
18 7600 8600
19 7600 8700
20 7600 8800
21 7600 8900
22 7600 9000
23 7700 8700
24 7700 8800
25 7700 8900
26 7700 9000
27 7800 8900
28 7800 9000
EOF
