Assets/LKHProbs~/skull.49.out.txt
NAME : GeneratedProblem.2882.tour
COMMENT : Length = 2882
COMMENT : Found by LKH [Keld Helsgaun] Sun Nov 25 13:17:49 2018
TYPE : TOUR
DIMENSION : 28
TOUR_SECTION
1
3
2
7
14
13
6
5
12
11
10
17
18
19
23
24
20
21
25
27
28
26
22
16
15
8
9
4
-1
EOF
